NAME: tsp20_19
COMMENT: 20-tsp problem (Padberg/Rinaldi)
TYPE: TSP
DIMENSION: 20
EDGE_WEIGHT_TYPE : EUC_2D
NODE_COORD_SECTION
1 34 11
2 4 13
3 14 12
4 27 34
5 29 29
6 5 10
7 21 40
8 0 5
9 36 24
10 35 26
11 13 15
12 12 35
13 27 16
14 7 21
15 2 12
16 4 36
17 32 33
18 30 24
19 24 16
20 7 9
